(set-info :smt-lib-version 2.6)
(set-logic QF_BV)
(set-info :source |
Benchmarks generated by the Calysto static checker.  Provided by Domagoj
Babic.  See http://www.cs.ubc.ca/~babic/index_benchmarks.htm.  Translated using
Spear Sf2Smt translator.

|)
(set-info :category "industrial")
(set-info :status sat)
(declare-fun v35106432 () (_ BitVec 64))
(declare-fun o50895488 () (_ BitVec 1))
(declare-fun v25184704 () (_ BitVec 64))
(declare-fun o89629892 () (_ BitVec 1))
(declare-fun v38067076 () (_ BitVec 32))
(declare-fun v57745244 () (_ BitVec 64))
(declare-fun o59097380 () (_ BitVec 1))
(declare-fun v54911452 () (_ BitVec 32))
(declare-fun o31304588 () (_ BitVec 32))
(declare-fun o63296384 () (_ BitVec 32))
(declare-fun v72400488 () (_ BitVec 64))
(declare-fun o74782352 () (_ BitVec 1))
(declare-fun v59235424 () (_ BitVec 64))
(declare-fun o29599560 () (_ BitVec 1))
(declare-fun v87858564 () (_ BitVec 32))
(declare-fun v43808080 () (_ BitVec 32))
(declare-fun o29926460 () (_ BitVec 32))
(declare-fun o27929200 () (_ BitVec 32))
(declare-fun o96015292 () (_ BitVec 32))
(declare-fun o39940124 () (_ BitVec 32))
(declare-fun o54753980 () (_ BitVec 32))
(declare-fun v54827996 () (_ BitVec 64))
(declare-fun o25464832 () (_ BitVec 64))
(declare-fun o62775496 () (_ BitVec 1))
(declare-fun o46709552 () (_ BitVec 64))
(declare-fun o34683372 () (_ BitVec 64))
(declare-fun o77465412 () (_ BitVec 64))
(declare-fun o43721044 () (_ BitVec 64))
(declare-fun v72782444 () (_ BitVec 64))
(declare-fun o43362148 () (_ BitVec 1))
(declare-fun v39839260 () (_ BitVec 64))
(declare-fun o52616348 () (_ BitVec 64))
(declare-fun o24180816 () (_ BitVec 1))
(declare-fun o40860864 () (_ BitVec 64))
(declare-fun o63300688 () (_ BitVec 64))
(declare-fun o67647208 () (_ BitVec 64))
(declare-fun o71227056 () (_ BitVec 64))
(declare-fun o62670656 () (_ BitVec 1))
(declare-fun o31967536 () (_ BitVec 1))
(declare-fun v52174788 () (_ BitVec 32))
(declare-fun v47136784 () (_ BitVec 32))
(declare-fun o70684752 () (_ BitVec 32))
(declare-fun o48241144 () (_ BitVec 32))
(declare-fun o36925792 () (_ BitVec 32))
(declare-fun o63181256 () (_ BitVec 32))
(declare-fun o31588828 () (_ BitVec 32))
(declare-fun o66454616 () (_ BitVec 32))
(declare-fun o46698792 () (_ BitVec 32))
(declare-fun v43966144 () (_ BitVec 32))
(declare-fun o46365900 () (_ BitVec 1))
(declare-fun o70037176 () (_ BitVec 64))
(declare-fun v22422876 () (_ BitVec 64))
(declare-fun o59151284 () (_ BitVec 1))
(declare-fun o38499864 () (_ BitVec 64))
(declare-fun o20619368 () (_ BitVec 64))
(declare-fun o59435164 () (_ BitVec 64))
(declare-fun o52783116 () (_ BitVec 32))
(declare-fun o39710644 () (_ BitVec 32))
(declare-fun o65430768 () (_ BitVec 64))
(declare-fun o34918896 () (_ BitVec 64))
(declare-fun o54470544 () (_ BitVec 64))
(declare-fun o35901912 () (_ BitVec 1))
(declare-fun o70000904 () (_ BitVec 1))
(declare-fun o32090876 () (_ BitVec 64))
(declare-fun o68723048 () (_ BitVec 64))
(declare-fun o48618400 () (_ BitVec 1))
(declare-fun v37767552 () (_ BitVec 1))
(declare-fun v59135280 () (_ BitVec 32))
(declare-fun o34175836 () (_ BitVec 32))
(declare-fun v42702552 () (_ BitVec 32))
(declare-fun o46267680 () (_ BitVec 1))
(declare-fun o45294168 () (_ BitVec 1))
(declare-fun o29503696 () (_ BitVec 1))
(declare-fun o69413080 () (_ BitVec 1))
(declare-fun o27907804 () (_ BitVec 1))
(declare-fun o86193072 () (_ BitVec 1))
(declare-fun o57925172 () (_ BitVec 1))
(declare-fun o40526084 () (_ BitVec 1))
(declare-fun o78766188 () (_ BitVec 1))
(declare-fun o51530472 () (_ BitVec 1))
(declare-fun o58533708 () (_ BitVec 1))
(declare-fun o69197260 () (_ BitVec 1))
(declare-fun o45798936 () (_ BitVec 1))
(declare-fun o32045420 () (_ BitVec 1))
(declare-fun o30555616 () (_ BitVec 1))
(declare-fun o51621932 () (_ BitVec 1))
(declare-fun o69998156 () (_ BitVec 1))
(declare-fun o53969588 () (_ BitVec 1))
(declare-fun o63008592 () (_ BitVec 1))
(declare-fun o72411464 () (_ BitVec 1))
(declare-fun o32168184 () (_ BitVec 1))
(declare-fun o43089364 () (_ BitVec 1))
(declare-fun o45607360 () (_ BitVec 1))
(declare-fun o40481760 () (_ BitVec 1))
(declare-fun o48341052 () (_ BitVec 1))
(declare-fun o22425336 () (_ BitVec 1))
(declare-fun o25986444 () (_ BitVec 1))
(declare-fun o23090460 () (_ BitVec 1))
(declare-fun o45617164 () (_ BitVec 1))
(declare-fun o62638096 () (_ BitVec 1))
(declare-fun o16046916 () (_ BitVec 1))
(declare-fun o72544840 () (_ BitVec 1))
(declare-fun o42141164 () (_ BitVec 1))
(declare-fun o55289680 () (_ BitVec 1))
(declare-fun o63410108 () (_ BitVec 1))
(declare-fun o63043248 () (_ BitVec 1))
(declare-fun o35431740 () (_ BitVec 1))
(declare-fun o59073280 () (_ BitVec 1))
(declare-fun o71811448 () (_ BitVec 1))
(declare-fun o31908328 () (_ BitVec 1))
(declare-fun o62654096 () (_ BitVec 1))
(declare-fun o57930532 () (_ BitVec 1))
(declare-fun o87634712 () (_ BitVec 1))
(declare-fun o63041164 () (_ BitVec 1))
(declare-fun o59341756 () (_ BitVec 1))
(declare-fun o38369872 () (_ BitVec 1))
(declare-fun o36931248 () (_ BitVec 1))
(declare-fun o41189864 () (_ BitVec 1))
(declare-fun o72970192 () (_ BitVec 1))
(declare-fun o55494780 () (_ BitVec 1))
(declare-fun o87930252 () (_ BitVec 1))
(declare-fun o37348856 () (_ BitVec 1))
(declare-fun o69689680 () (_ BitVec 1))
(declare-fun o70752104 () (_ BitVec 1))
(declare-fun o48932164 () (_ BitVec 1))
(declare-fun o39579152 () (_ BitVec 1))
(declare-fun o63045740 () (_ BitVec 1))
(declare-fun o58002972 () (_ BitVec 1))
(declare-fun o18761188 () (_ BitVec 1))
(declare-fun o51111096 () (_ BitVec 1))
(declare-fun o56618940 () (_ BitVec 1))
(declare-fun o51619728 () (_ BitVec 1))
(declare-fun o44997968 () (_ BitVec 1))
(declare-fun o22953256 () (_ BitVec 1))
(declare-fun o60317884 () (_ BitVec 1))
(declare-fun o63354708 () (_ BitVec 1))
(declare-fun o59073240 () (_ BitVec 1))
(declare-fun o50406252 () (_ BitVec 1))
(declare-fun o71849196 () (_ BitVec 1))
(declare-fun o63160676 () (_ BitVec 1))
(declare-fun o25092548 () (_ BitVec 1))
(declare-fun o65803132 () (_ BitVec 1))
(declare-fun o43232488 () (_ BitVec 1))
(declare-fun o35817276 () (_ BitVec 1))
(declare-fun o71018848 () (_ BitVec 1))
(declare-fun o71732216 () (_ BitVec 1))
(declare-fun o25915672 () (_ BitVec 1))
(declare-fun o73086188 () (_ BitVec 1))
(declare-fun o37465056 () (_ BitVec 1))
(declare-fun o37415136 () (_ BitVec 1))
(declare-fun o53407144 () (_ BitVec 1))
(declare-fun o20010840 () (_ BitVec 1))
(declare-fun o46339768 () (_ BitVec 1))
(declare-fun o45085712 () (_ BitVec 1))
(declare-fun o37484656 () (_ BitVec 1))
(declare-fun o43672260 () (_ BitVec 1))
(declare-fun o62565944 () (_ BitVec 1))
(declare-fun o46343532 () (_ BitVec 1))
(declare-fun o46429456 () (_ BitVec 1))
(declare-fun o68081144 () (_ BitVec 1))
(declare-fun o41303468 () (_ BitVec 1))
(declare-fun o37684260 () (_ BitVec 64))
(declare-fun o39231388 () (_ BitVec 64))
(declare-fun o70735764 () (_ BitVec 1))
(declare-fun o56311844 () (_ BitVec 1))
(declare-fun o18878316 () (_ BitVec 1))
(declare-fun o57469940 () (_ BitVec 1))
(declare-fun o55181644 () (_ BitVec 1))
(declare-fun o27916792 () (_ BitVec 1))
(declare-fun o53458352 () (_ BitVec 1))
(declare-fun v94305304 () (_ BitVec 1))
(declare-fun v73017572 () (_ BitVec 64))
(declare-fun o19152908 () (_ BitVec 64))
(declare-fun o67426304 () (_ BitVec 64))
(declare-fun v41395420 () (_ BitVec 64))
(declare-fun o92801624 () (_ BitVec 64))
(declare-fun o42486172 () (_ BitVec 64))
(declare-fun o24282644 () (_ BitVec 64))
(declare-fun o67788896 () (_ BitVec 1))
(declare-fun o48020640 () (_ BitVec 1))
(declare-fun o52111516 () (_ BitVec 1))
(declare-fun o28144664 () (_ BitVec 1))
(declare-fun o63031264 () (_ BitVec 1))
(declare-fun o34818504 () (_ BitVec 1))
(declare-fun o48733356 () (_ BitVec 1))
(declare-fun o43974372 () (_ BitVec 1))
(declare-fun o22619924 () (_ BitVec 1))
(declare-fun o57242788 () (_ BitVec 1))
(declare-fun o63293048 () (_ BitVec 1))
(declare-fun o21578952 () (_ BitVec 1))
(declare-fun o57259612 () (_ BitVec 1))
(declare-fun o58489552 () (_ BitVec 1))
(declare-fun o30911200 () (_ BitVec 1))
(declare-fun o47890448 () (_ BitVec 1))
(declare-fun o58213052 () (_ BitVec 1))
(declare-fun o21211484 () (_ BitVec 1))
(declare-fun o35994952 () (_ BitVec 1))
(declare-fun o24784980 () (_ BitVec 1))
(declare-fun o72493948 () (_ BitVec 1))
(declare-fun o68534932 () (_ BitVec 1))
(declare-fun o46389116 () (_ BitVec 1))
(declare-fun o46280496 () (_ BitVec 1))
(declare-fun o75845848 () (_ BitVec 1))
(declare-fun o48138176 () (_ BitVec 1))
(declare-fun o32214288 () (_ BitVec 1))
(declare-fun o30673936 () (_ BitVec 1))
(declare-fun o38429032 () (_ BitVec 1))
(declare-fun o44296080 () (_ BitVec 1))
(declare-fun o48929076 () (_ BitVec 1))
(declare-fun o44373908 () (_ BitVec 1))
(declare-fun o36878908 () (_ BitVec 1))
(declare-fun o53395112 () (_ BitVec 1))
(declare-fun o66935208 () (_ BitVec 1))
(declare-fun o66966060 () (_ BitVec 1))
(declare-fun o62406052 () (_ BitVec 1))
(declare-fun o50895328 () (_ BitVec 1))
(declare-fun o22548508 () (_ BitVec 1))
(declare-fun o45381204 () (_ BitVec 1))
(declare-fun o37040976 () (_ BitVec 1))
(declare-fun o39780588 () (_ BitVec 1))
(declare-fun o89548224 () (_ BitVec 1))
(declare-fun o64772932 () (_ BitVec 1))
(declare-fun o41720420 () (_ BitVec 1))
(declare-fun o58861628 () (_ BitVec 1))
(declare-fun o63425732 () (_ BitVec 1))
(declare-fun o36966952 () (_ BitVec 1))
(declare-fun o17616216 () (_ BitVec 1))
(declare-fun o34797024 () (_ BitVec 1))
(declare-fun o39124356 () (_ BitVec 1))
(declare-fun o63409920 () (_ BitVec 1))
(declare-fun o89630872 () (_ BitVec 1))
(declare-fun v42484852 () (_ BitVec 32))
(declare-fun o62758248 () (_ BitVec 1))
(declare-fun o18744784 () (_ BitVec 1))
(declare-fun o62741168 () (_ BitVec 1))
(declare-fun o26144744 () (_ BitVec 1))
(declare-fun Fresh__0 () (_ BitVec 1))
(declare-fun Fresh__1 () (_ BitVec 1))
(declare-fun Fresh__2 () (_ BitVec 1))
(declare-fun Fresh__3 () (_ BitVec 1))
(declare-fun Fresh__4 () (_ BitVec 1))
(declare-fun Fresh__5 () (_ BitVec 1))
(declare-fun Fresh__6 () (_ BitVec 1))
(declare-fun Fresh__7 () (_ BitVec 1))
(declare-fun Fresh__8 () (_ BitVec 1))
(declare-fun Fresh__9 () (_ BitVec 1))
(declare-fun Fresh__10 () (_ BitVec 1))
(declare-fun Fresh__11 () (_ BitVec 1))
(declare-fun Fresh__12 () (_ BitVec 1))
(declare-fun Fresh__13 () (_ BitVec 1))
(declare-fun Fresh__14 () (_ BitVec 1))
(declare-fun Fresh__15 () (_ BitVec 1))
(declare-fun Fresh__16 () (_ BitVec 1))
(declare-fun Fresh__17 () (_ BitVec 1))
(declare-fun Fresh__18 () (_ BitVec 1))
(declare-fun Fresh__19 () (_ BitVec 1))
(declare-fun Fresh__20 () (_ BitVec 1))
(declare-fun Fresh__21 () (_ BitVec 1))
(declare-fun Fresh__22 () (_ BitVec 1))
(declare-fun Fresh__23 () (_ BitVec 1))
(declare-fun Fresh__24 () (_ BitVec 1))
(declare-fun Fresh__25 () (_ BitVec 1))
(declare-fun Fresh__26 () (_ BitVec 1))
(declare-fun Fresh__27 () (_ BitVec 1))
(declare-fun Fresh__28 () (_ BitVec 1))
(declare-fun Fresh__29 () (_ BitVec 1))
(declare-fun Fresh__30 () (_ BitVec 1))
(declare-fun Fresh__31 () (_ BitVec 1))
(declare-fun Fresh__32 () (_ BitVec 1))
(declare-fun Fresh__33 () (_ BitVec 1))
(declare-fun Fresh__34 () (_ BitVec 1))
(declare-fun Fresh__35 () (_ BitVec 1))
(declare-fun Fresh__36 () (_ BitVec 1))
(declare-fun Fresh__37 () (_ BitVec 1))
(declare-fun Fresh__38 () (_ BitVec 1))
(declare-fun Fresh__39 () (_ BitVec 1))
(declare-fun Fresh__40 () (_ BitVec 1))
(declare-fun Fresh__41 () (_ BitVec 1))
(declare-fun Fresh__42 () (_ BitVec 1))
(declare-fun Fresh__43 () (_ BitVec 1))
(declare-fun Fresh__44 () (_ BitVec 1))
(declare-fun Fresh__45 () (_ BitVec 1))
(declare-fun Fresh__46 () (_ BitVec 1))
(declare-fun Fresh__47 () (_ BitVec 1))
(declare-fun Fresh__48 () (_ BitVec 1))
(declare-fun Fresh__49 () (_ BitVec 1))
(declare-fun Fresh__50 () (_ BitVec 1))
(declare-fun Fresh__51 () (_ BitVec 1))
(declare-fun Fresh__52 () (_ BitVec 1))
(declare-fun Fresh__53 () (_ BitVec 1))
(declare-fun Fresh__54 () (_ BitVec 1))
(declare-fun Fresh__55 () (_ BitVec 1))
(declare-fun Fresh__56 () (_ BitVec 1))
(declare-fun Fresh__57 () (_ BitVec 1))
(declare-fun Fresh__58 () (_ BitVec 1))
(declare-fun Fresh__59 () (_ BitVec 1))
(declare-fun Fresh__60 () (_ BitVec 1))
(declare-fun Fresh__61 () (_ BitVec 1))
(declare-fun Fresh__62 () (_ BitVec 1))
(declare-fun Fresh__63 () (_ BitVec 1))
(declare-fun Fresh__64 () (_ BitVec 1))
(declare-fun Fresh__65 () (_ BitVec 1))
(declare-fun Fresh__66 () (_ BitVec 1))
(declare-fun Fresh__67 () (_ BitVec 1))
(declare-fun Fresh__68 () (_ BitVec 1))
(declare-fun Fresh__69 () (_ BitVec 1))
(declare-fun Fresh__70 () (_ BitVec 1))
(declare-fun Fresh__71 () (_ BitVec 1))
(declare-fun Fresh__72 () (_ BitVec 1))
(declare-fun Fresh__73 () (_ BitVec 1))
(declare-fun Fresh__74 () (_ BitVec 1))
(declare-fun Fresh__75 () (_ BitVec 1))
(declare-fun Fresh__76 () (_ BitVec 1))
(declare-fun Fresh__77 () (_ BitVec 1))
(declare-fun Fresh__78 () (_ BitVec 1))
(declare-fun Fresh__79 () (_ BitVec 1))
(declare-fun Fresh__80 () (_ BitVec 1))
(assert (= (= Fresh__0 (_ bv1 1)) (bvslt v35106432 ((_ extract 63 0) (_ bv1 64)))))
(assert (= o50895488 Fresh__0))
(assert (= (= Fresh__1 (_ bv1 1)) (= v25184704 ((_ extract 63 0) (_ bv0 64)))))
(assert (= o89629892 Fresh__1))
(assert (= (= Fresh__2 (_ bv1 1)) (= v57745244 ((_ extract 63 0) (_ bv0 64)))))
(assert (= o59097380 Fresh__2))
(assert (= o31304588 (ite (= o59097380 (_ bv1 1)) v38067076 v54911452)))
(assert (= o63296384 (ite (= o89629892 (_ bv1 1)) v38067076 o31304588)))
(assert (= (= Fresh__3 (_ bv1 1)) (bvslt v72400488 ((_ extract 63 0) (_ bv1 64)))))
(assert (= o74782352 Fresh__3))
(assert (= (= Fresh__4 (_ bv1 1)) (bvsle v59235424 ((_ extract 63 0) (_ bv3000 64)))))
(assert (= o29599560 Fresh__4))
(assert (= o29926460 (ite (= o59097380 (_ bv1 1)) v87858564 v43808080)))
(assert (= o27929200 (ite (= o89629892 (_ bv1 1)) v87858564 o29926460)))
(assert (= o96015292 (ite (= o29599560 (_ bv1 1)) o63296384 o27929200)))
(assert (= o39940124 (ite (= o74782352 (_ bv1 1)) o63296384 o96015292)))
(assert (= o54753980 (ite (= o50895488 (_ bv1 1)) o63296384 o39940124)))
(assert (= o25464832 (bvadd v72400488 v54827996)))
(assert (= (= Fresh__5 (_ bv1 1)) (= o25464832 v35106432)))
(assert (= o62775496 Fresh__5))
(assert (= o46709552 (bvsdiv v59235424 ((_ extract 63 0) (_ bv1000 64)))))
(assert (= o34683372 (bvsub v35106432 o25464832)))
(assert (= o77465412 (bvmul o46709552 o34683372)))
(assert (= o43721044 (bvsdiv o77465412 v72400488)))
(assert (= (= Fresh__6 (_ bv1 1)) (= ((_ extract 63 0) (_ bv0 64)) v72782444)))
(assert (= o43362148 Fresh__6))
(assert (= o52616348 (bvsub v59235424 v39839260)))
(assert (= (= Fresh__7 (_ bv1 1)) (bvsle ((_ extract 63 0) (_ bv900 64)) o52616348)))
(assert (= o24180816 Fresh__7))
(assert (= o40860864 (ite (= o24180816 (_ bv1 1)) o43721044 v72782444)))
(assert (= o63300688 (ite (= o43362148 (_ bv1 1)) o43721044 o40860864)))
(assert (= o67647208 (ite (= o62775496 (_ bv1 1)) o43721044 o63300688)))
(assert (= o71227056 (bvsdiv o67647208 ((_ extract 63 0) (_ bv3600 64)))))
(assert (= (= Fresh__8 (_ bv1 1)) (bvslt ((_ extract 63 0) (_ bv99 64)) o71227056)))
(assert (= o62670656 Fresh__8))
(assert (= (= Fresh__9 (_ bv1 1)) (= o71227056 ((_ extract 63 0) (_ bv0 64)))))
(assert (= o31967536 Fresh__9))
(assert (= o70684752 (ite (= o59097380 (_ bv1 1)) v52174788 v47136784)))
(assert (= o48241144 (ite (= o89629892 (_ bv1 1)) v52174788 o70684752)))
(assert (= o36925792 (ite (= o31967536 (_ bv1 1)) o48241144 o63296384)))
(assert (= o63181256 (ite (= o62670656 (_ bv1 1)) o54753980 o36925792)))
(assert (= o31588828 (ite (= o29599560 (_ bv1 1)) o54753980 o63181256)))
(assert (= o66454616 (ite (= o74782352 (_ bv1 1)) o54753980 o31588828)))
(assert (= o46698792 (ite (= o50895488 (_ bv1 1)) o63296384 o66454616)))
(assert (= (= Fresh__10 (_ bv1 1)) (bvsle o46698792 v43966144)))
(assert (= o46365900 Fresh__10))
(assert (= o70037176 ((_ sign_extend 32) v43966144)))
(assert (= (= Fresh__11 (_ bv1 1)) (bvslt ((_ extract 63 0) (_ bv10 64)) v22422876)))
(assert (= o59151284 Fresh__11))
(assert (= o38499864 (bvadd v22422876 ((_ extract 63 0) (_ bv1 64)))))
(assert (= o20619368 (ite (= o59151284 (_ bv1 1)) o38499864 ((_ extract 63 0) (_ bv12 64)))))
(assert (= o59435164 (bvsub o70037176 o20619368)))
(assert (= o52783116 ((_ extract 31 0) o59435164)))
(assert (= o39710644 (bvadd ((_ extract 31 0) (_ bv18446744073709551586 64)) o52783116)))
(assert (= o65430768 ((_ sign_extend 32) o39710644)))
(assert (= o34918896 (bvsdiv v54827996 v35106432)))
(assert (= o54470544 (bvmul o65430768 o34918896)))
(assert (= (= Fresh__12 (_ bv1 1)) (bvsle o54470544 ((_ extract 63 0) (_ bv0 64)))))
(assert (= o35901912 Fresh__12))
(assert (= (= Fresh__13 (_ bv1 1)) (distinct o39710644 ((_ extract 31 0) (_ bv0 64)))))
(assert (= o70000904 Fresh__13))
(assert (= o32090876 (bvmul o25464832 ((_ extract 63 0) (_ bv100 64)))))
(assert (= o68723048 (bvsdiv o32090876 v35106432)))
(assert (= (= Fresh__14 (_ bv1 1)) (bvslt o68723048 ((_ extract 63 0) (_ bv100 64)))))
(assert (= o48618400 Fresh__14))
(assert (= o34175836 (ite (= v37767552 (_ bv1 1)) ((_ extract 31 0) (_ bv0 64)) v59135280)))
(assert (= (= Fresh__15 (_ bv1 1)) (= o34175836 v42702552)))
(assert (= o46267680 Fresh__15))
(assert (= (= Fresh__16 (_ bv1 1)) (bvslt o25464832 ((_ extract 63 0) (_ bv0 64)))))
(assert (= o45294168 Fresh__16))
(assert (= (= Fresh__17 (_ bv1 1)) (= ((_ extract 63 0) (_ bv9223372036854775808 64)) o25464832)))
(assert (= o29503696 Fresh__17))
(assert (= o69413080 (bvand ((_ extract 0 0) (_ bv1 64)) o45294168)))
(assert (= (= Fresh__18 (_ bv1 1)) (bvslt o25464832 ((_ extract 63 0) (_ bv10 64)))))
(assert (= o27907804 Fresh__18))
(assert (= (= Fresh__19 (_ bv1 1)) (bvslt o25464832 ((_ extract 63 0) (_ bv100 64)))))
(assert (= o86193072 Fresh__19))
(assert (= (= Fresh__20 (_ bv1 1)) (bvsle ((_ extract 63 0) (_ bv10 64)) o25464832)))
(assert (= o57925172 Fresh__20))
(assert (= o40526084 (bvand ((_ extract 0 0) (_ bv1 64)) o57925172)))
(assert (= (= Fresh__21 (_ bv1 1)) (bvslt o25464832 ((_ extract 63 0) (_ bv1000 64)))))
(assert (= o78766188 Fresh__21))
(assert (= (= Fresh__22 (_ bv1 1)) (bvsle ((_ extract 63 0) (_ bv100 64)) o25464832)))
(assert (= o51530472 Fresh__22))
(assert (= o58533708 (bvand o40526084 o51530472)))
(assert (= (= Fresh__23 (_ bv1 1)) (bvslt o25464832 ((_ extract 63 0) (_ bv10000 64)))))
(assert (= o69197260 Fresh__23))
(assert (= (= Fresh__24 (_ bv1 1)) (bvsle ((_ extract 63 0) (_ bv1000 64)) o25464832)))
(assert (= o45798936 Fresh__24))
(assert (= o32045420 (bvand o58533708 o45798936)))
(assert (= (= Fresh__25 (_ bv1 1)) (bvslt o25464832 ((_ extract 63 0) (_ bv100000 64)))))
(assert (= o30555616 Fresh__25))
(assert (= (= Fresh__26 (_ bv1 1)) (bvsle ((_ extract 63 0) (_ bv10000 64)) o25464832)))
(assert (= o51621932 Fresh__26))
(assert (= o69998156 (bvand o51621932 o32045420)))
(assert (= (= Fresh__27 (_ bv1 1)) (bvslt o25464832 ((_ extract 63 0) (_ bv1000000 64)))))
(assert (= o53969588 Fresh__27))
(assert (= (= Fresh__28 (_ bv1 1)) (bvsle ((_ extract 63 0) (_ bv100000 64)) o25464832)))
(assert (= o63008592 Fresh__28))
(assert (= o72411464 (bvand o63008592 o69998156)))
(assert (= (= Fresh__29 (_ bv1 1)) (bvslt o25464832 ((_ extract 63 0) (_ bv10000000 64)))))
(assert (= o32168184 Fresh__29))
(assert (= (= Fresh__30 (_ bv1 1)) (bvsle ((_ extract 63 0) (_ bv1000000 64)) o25464832)))
(assert (= o43089364 Fresh__30))
(assert (= o45607360 (bvand o43089364 o72411464)))
(assert (= (= Fresh__31 (_ bv1 1)) (bvslt o25464832 ((_ extract 63 0) (_ bv100000000 64)))))
(assert (= o40481760 Fresh__31))
(assert (= (= Fresh__32 (_ bv1 1)) (bvsle ((_ extract 63 0) (_ bv10000000 64)) o25464832)))
(assert (= o48341052 Fresh__32))
(assert (= o22425336 (bvand o45607360 o48341052)))
(assert (= (= Fresh__33 (_ bv1 1)) (bvslt o25464832 ((_ extract 63 0) (_ bv1000000000 64)))))
(assert (= o25986444 Fresh__33))
(assert (= (= Fresh__34 (_ bv1 1)) (bvsle ((_ extract 63 0) (_ bv100000000 64)) o25464832)))
(assert (= o23090460 Fresh__34))
(assert (= o45617164 (bvand o22425336 o23090460)))
(assert (= (= Fresh__35 (_ bv1 1)) (bvslt o25464832 ((_ extract 63 0) (_ bv10000000000 64)))))
(assert (= o62638096 Fresh__35))
(assert (= (= Fresh__36 (_ bv1 1)) (bvsle ((_ extract 63 0) (_ bv1000000000 64)) o25464832)))
(assert (= o16046916 Fresh__36))
(assert (= o72544840 (bvand o16046916 o45617164)))
(assert (= (= Fresh__37 (_ bv1 1)) (bvslt o25464832 ((_ extract 63 0) (_ bv100000000000 64)))))
(assert (= o42141164 Fresh__37))
(assert (= (= Fresh__38 (_ bv1 1)) (bvsle ((_ extract 63 0) (_ bv10000000000 64)) o25464832)))
(assert (= o55289680 Fresh__38))
(assert (= o63410108 (bvand o72544840 o55289680)))
(assert (= (= Fresh__39 (_ bv1 1)) (bvslt o25464832 ((_ extract 63 0) (_ bv1000000000000 64)))))
(assert (= o63043248 Fresh__39))
(assert (= (= Fresh__40 (_ bv1 1)) (bvsle ((_ extract 63 0) (_ bv100000000000 64)) o25464832)))
(assert (= o35431740 Fresh__40))
(assert (= o59073280 (bvand o35431740 o63410108)))
(assert (= (= Fresh__41 (_ bv1 1)) (bvslt o25464832 ((_ extract 63 0) (_ bv10000000000000 64)))))
(assert (= o71811448 Fresh__41))
(assert (= (= Fresh__42 (_ bv1 1)) (bvsle ((_ extract 63 0) (_ bv1000000000000 64)) o25464832)))
(assert (= o31908328 Fresh__42))
(assert (= o62654096 (bvand o31908328 o59073280)))
(assert (= (= Fresh__43 (_ bv1 1)) (bvslt o25464832 ((_ extract 63 0) (_ bv100000000000000 64)))))
(assert (= o57930532 Fresh__43))
(assert (= (= Fresh__44 (_ bv1 1)) (bvsle ((_ extract 63 0) (_ bv10000000000000 64)) o25464832)))
(assert (= o87634712 Fresh__44))
(assert (= o63041164 (bvand o62654096 o87634712)))
(assert (= (= Fresh__45 (_ bv1 1)) (bvslt o25464832 ((_ extract 63 0) (_ bv1000000000000000 64)))))
(assert (= o59341756 Fresh__45))
(assert (= (= Fresh__46 (_ bv1 1)) (bvsle ((_ extract 63 0) (_ bv100000000000000 64)) o25464832)))
(assert (= o38369872 Fresh__46))
(assert (= o36931248 (bvand o63041164 o38369872)))
(assert (= (= Fresh__47 (_ bv1 1)) (bvslt o25464832 ((_ extract 63 0) (_ bv10000000000000000 64)))))
(assert (= o41189864 Fresh__47))
(assert (= (= Fresh__48 (_ bv1 1)) (bvsle ((_ extract 63 0) (_ bv1000000000000000 64)) o25464832)))
(assert (= o72970192 Fresh__48))
(assert (= o55494780 (bvand o36931248 o72970192)))
(assert (= (= Fresh__49 (_ bv1 1)) (bvslt o25464832 ((_ extract 63 0) (_ bv100000000000000000 64)))))
(assert (= o87930252 Fresh__49))
(assert (= (= Fresh__50 (_ bv1 1)) (bvsle ((_ extract 63 0) (_ bv10000000000000000 64)) o25464832)))
(assert (= o37348856 Fresh__50))
(assert (= o69689680 (bvand o37348856 o55494780)))
(assert (= (= Fresh__51 (_ bv1 1)) (bvslt o25464832 ((_ extract 63 0) (_ bv1000000000000000000 64)))))
(assert (= o70752104 Fresh__51))
(assert (= (= Fresh__52 (_ bv1 1)) (bvsle ((_ extract 63 0) (_ bv100000000000000000 64)) o25464832)))
(assert (= o48932164 Fresh__52))
(assert (= o39579152 (bvand o69689680 o48932164)))
(assert (= (= Fresh__53 (_ bv1 1)) (bvsle ((_ extract 63 0) (_ bv1000000000000000000 64)) o25464832)))
(assert (= o63045740 Fresh__53))
(assert (= o58002972 (bvand o39579152 o63045740)))
(assert (= o18761188 (ite (= o70752104 (_ bv1 1)) o39579152 o58002972)))
(assert (= o51111096 (ite (= o87930252 (_ bv1 1)) o69689680 o18761188)))
(assert (= o56618940 (ite (= o41189864 (_ bv1 1)) o55494780 o51111096)))
(assert (= o51619728 (ite (= o59341756 (_ bv1 1)) o36931248 o56618940)))
(assert (= o44997968 (ite (= o57930532 (_ bv1 1)) o63041164 o51619728)))
(assert (= o22953256 (ite (= o71811448 (_ bv1 1)) o62654096 o44997968)))
(assert (= o60317884 (ite (= o63043248 (_ bv1 1)) o59073280 o22953256)))
(assert (= o63354708 (ite (= o42141164 (_ bv1 1)) o63410108 o60317884)))
(assert (= o59073240 (ite (= o62638096 (_ bv1 1)) o72544840 o63354708)))
(assert (= o50406252 (ite (= o25986444 (_ bv1 1)) o45617164 o59073240)))
(assert (= o71849196 (ite (= o40481760 (_ bv1 1)) o22425336 o50406252)))
(assert (= o63160676 (ite (= o32168184 (_ bv1 1)) o45607360 o71849196)))
(assert (= o25092548 (ite (= o53969588 (_ bv1 1)) o72411464 o63160676)))
(assert (= o65803132 (ite (= o30555616 (_ bv1 1)) o69998156 o25092548)))
(assert (= o43232488 (ite (= o69197260 (_ bv1 1)) o32045420 o65803132)))
(assert (= o35817276 (ite (= o78766188 (_ bv1 1)) o58533708 o43232488)))
(assert (= o71018848 (ite (= o86193072 (_ bv1 1)) o40526084 o35817276)))
(assert (= o71732216 (ite (= o27907804 (_ bv1 1)) ((_ extract 0 0) (_ bv1 64)) o71018848)))
(assert (= o25915672 (ite (= o29503696 (_ bv1 1)) o69413080 o71732216)))
(assert (= o73086188 (ite (= o45294168 (_ bv1 1)) o25915672 o71732216)))
(assert (= o37465056 (bvand ((_ extract 0 0) (_ bv1 64)) o73086188)))
(assert (= o37415136 (bvand o46267680 o37465056)))
(assert (= o53407144 (bvand ((_ extract 0 0) (_ bv1 64)) o37415136)))
(assert (= (= Fresh__54 (_ bv1 1)) (bvslt ((_ extract 63 0) (_ bv0 64)) v35106432)))
(assert (= o20010840 Fresh__54))
(assert (= o46339768 (bvand o53407144 o20010840)))
(assert (= (= Fresh__55 (_ bv1 1)) (bvsle o68723048 ((_ extract 63 0) (_ bv100 64)))))
(assert (= o45085712 Fresh__55))
(assert (= o37484656 (bvand o46339768 o45085712)))
(assert (= (= Fresh__56 (_ bv1 1)) (bvsle ((_ extract 63 0) (_ bv100 64)) o68723048)))
(assert (= o43672260 Fresh__56))
(assert (= o62565944 (bvand o37484656 o43672260)))
(assert (= o46343532 (ite (= o48618400 (_ bv1 1)) o37484656 o62565944)))
(assert (= o46429456 (bvand o70000904 o46343532)))
(assert (= (= Fresh__57 (_ bv1 1)) (bvsle ((_ extract 63 0) (_ bv1 64)) v35106432)))
(assert (= o68081144 Fresh__57))
(assert (= o41303468 (bvand o46429456 o68081144)))
(assert (= o37684260 (bvsdiv o25464832 v35106432)))
(assert (= o39231388 (bvmul o65430768 o37684260)))
(assert (= (= Fresh__58 (_ bv1 1)) (bvsle o39231388 o65430768)))
(assert (= o70735764 Fresh__58))
(assert (= o56311844 (bvand o41303468 o70735764)))
(assert (= (= Fresh__59 (_ bv1 1)) (bvsle o54470544 o39231388)))
(assert (= o18878316 Fresh__59))
(assert (= o57469940 (bvand o56311844 o18878316)))
(assert (= o55181644 (bvand o35901912 o57469940)))
(assert (= (= Fresh__60 (_ bv1 1)) (bvsle o39710644 ((_ extract 31 0) (_ bv0 64)))))
(assert (= o27916792 Fresh__60))
(assert (= o53458352 (bvand o55181644 o27916792)))
(assert (= o19152908 (bvadd v73017572 v57745244)))
(assert (= o67426304 (bvmul ((_ extract 63 0) (_ bv1000 64)) o19152908)))
(assert (= o92801624 (bvsub v59235424 v41395420)))
(assert (= o42486172 (bvadd v25184704 o92801624)))
(assert (= o24282644 (bvsdiv o67426304 o42486172)))
(assert (= (= Fresh__61 (_ bv1 1)) (bvslt o24282644 ((_ extract 63 0) (_ bv1024 64)))))
(assert (= o67788896 Fresh__61))
(assert (= (= Fresh__62 (_ bv1 1)) (bvsle ((_ extract 63 0) (_ bv0 64)) o42486172)))
(assert (= o48020640 Fresh__62))
(assert (= o52111516 (bvand ((_ extract 0 0) (_ bv1 64)) o48020640)))
(assert (= (= Fresh__63 (_ bv1 1)) (bvsle ((_ extract 63 0) (_ bv0 64)) o19152908)))
(assert (= o28144664 Fresh__63))
(assert (= o63031264 (bvand o52111516 o28144664)))
(assert (= (= Fresh__64 (_ bv1 1)) (bvslt o24282644 ((_ extract 63 0) (_ bv1048576 64)))))
(assert (= o34818504 Fresh__64))
(assert (= (= Fresh__65 (_ bv1 1)) (bvsle ((_ extract 63 0) (_ bv1024 64)) o24282644)))
(assert (= o48733356 Fresh__65))
(assert (= o43974372 (bvand o63031264 o48733356)))
(assert (= (= Fresh__66 (_ bv1 1)) (bvslt o24282644 ((_ extract 63 0) (_ bv1073741824 64)))))
(assert (= o22619924 Fresh__66))
(assert (= (= Fresh__67 (_ bv1 1)) (bvsle ((_ extract 63 0) (_ bv1048576 64)) o24282644)))
(assert (= o57242788 Fresh__67))
(assert (= o63293048 (bvand o57242788 o43974372)))
(assert (= (= Fresh__68 (_ bv1 1)) (bvsle ((_ extract 63 0) (_ bv1073741824 64)) o24282644)))
(assert (= o21578952 Fresh__68))
(assert (= o57259612 (bvand o21578952 o63293048)))
(assert (= o58489552 (ite (= o22619924 (_ bv1 1)) o63293048 o57259612)))
(assert (= o30911200 (ite (= o34818504 (_ bv1 1)) o43974372 o58489552)))
(assert (= o47890448 (ite (= o67788896 (_ bv1 1)) o63031264 o30911200)))
(assert (= o58213052 (ite (= v94305304 (_ bv1 1)) o47890448 ((_ extract 0 0) (_ bv0 64)))))
(assert (= (= Fresh__69 (_ bv1 1)) (distinct v57745244 ((_ extract 63 0) (_ bv0 64)))))
(assert (= o21211484 Fresh__69))
(assert (= (= Fresh__70 (_ bv1 1)) (distinct v25184704 ((_ extract 63 0) (_ bv0 64)))))
(assert (= o35994952 Fresh__70))
(assert (= o24784980 (bvand o35994952 o53458352)))
(assert (= o72493948 (bvand o21211484 o24784980)))
(assert (= o68534932 (bvand o58213052 o72493948)))
(assert (= o46389116 (ite (= o59097380 (_ bv1 1)) o53458352 o68534932)))
(assert (= o46280496 (ite (= o89629892 (_ bv1 1)) o53458352 o46389116)))
(assert (= o75845848 (bvand o20010840 o46280496)))
(assert (= (= Fresh__71 (_ bv1 1)) (bvsle ((_ extract 63 0) (_ bv1 64)) v72400488)))
(assert (= o48138176 Fresh__71))
(assert (= o32214288 (bvand o46280496 o68081144)))
(assert (= o30673936 (bvand o48138176 o32214288)))
(assert (= (= Fresh__72 (_ bv1 1)) (bvslt ((_ extract 63 0) (_ bv3000 64)) v59235424)))
(assert (= o38429032 Fresh__72))
(assert (= o44296080 (bvand o30673936 o38429032)))
(assert (= (= Fresh__73 (_ bv1 1)) (distinct ((_ extract 63 0) (_ bv0 64)) v72782444)))
(assert (= o48929076 Fresh__73))
(assert (= (= Fresh__74 (_ bv1 1)) (distinct o25464832 v35106432)))
(assert (= o44373908 Fresh__74))
(assert (= o36878908 (bvand o44373908 o44296080)))
(assert (= o53395112 (bvand o48929076 o36878908)))
(assert (= (= Fresh__75 (_ bv1 1)) (bvslt o52616348 ((_ extract 63 0) (_ bv900 64)))))
(assert (= o66935208 Fresh__75))
(assert (= o66966060 (bvand o53395112 o66935208)))
(assert (= o62406052 (ite (= o24180816 (_ bv1 1)) o44296080 o66966060)))
(assert (= o50895328 (ite (= o43362148 (_ bv1 1)) o44296080 o62406052)))
(assert (= o22548508 (ite (= o62775496 (_ bv1 1)) o44296080 o50895328)))
(assert (= o45381204 (bvand o22548508 o62670656)))
(assert (= o37040976 (ite (= o29599560 (_ bv1 1)) o75845848 o45381204)))
(assert (= o39780588 (ite (= o74782352 (_ bv1 1)) o75845848 o37040976)))
(assert (= o89548224 (ite (= o50895488 (_ bv1 1)) o75845848 o39780588)))
(assert (= o64772932 (ite (= o29599560 (_ bv1 1)) o46280496 o89548224)))
(assert (= o41720420 (ite (= o74782352 (_ bv1 1)) o46280496 o64772932)))
(assert (= o58861628 (ite (= o50895488 (_ bv1 1)) o46280496 o41720420)))
(assert (= (= Fresh__76 (_ bv1 1)) (bvsle o71227056 ((_ extract 63 0) (_ bv99 64)))))
(assert (= o63425732 Fresh__76))
(assert (= o36966952 (bvand o22548508 o63425732)))
(assert (= o17616216 (ite (= o62670656 (_ bv1 1)) o58861628 o36966952)))
(assert (= o34797024 (ite (= o29599560 (_ bv1 1)) o58861628 o17616216)))
(assert (= o39124356 (ite (= o74782352 (_ bv1 1)) o58861628 o34797024)))
(assert (= o63409920 (ite (= o50895488 (_ bv1 1)) o46280496 o39124356)))
(assert (= o89630872 (bvand o46365900 o63409920)))
(assert (= (= Fresh__77 (_ bv1 1)) (bvult o46698792 v42484852)))
(assert (= o62758248 Fresh__77))
(assert (= o18744784 (bvand o89630872 o62758248)))
(assert (= (= Fresh__78 (_ bv1 1)) (distinct ((_ extract 31 0) (_ bv0 64)) o46698792)))
(assert (= o62741168 Fresh__78))
(assert (= (= Fresh__79 (_ bv1 1)) (=> (= o18744784 (_ bv1 1)) (= o62741168 (_ bv1 1)))))
(assert (= o26144744 Fresh__79))
(assert (= (= Fresh__80 (_ bv1 1)) (= ((_ extract 0 0) (_ bv0 64)) o26144744)))
(assert (= (_ bv1 1) Fresh__80))
(check-sat)
(exit)
